========================================================== 
File name: C:\DEGR\assets\definitions\MSRCPSP_Gen\200_10_64_5_B.def
Creation date: Wed May 03 10:45:46 CEST 2023
Website: http://imopse.ii.pwr.edu.pl/ 
Reference: 
Myszkowski P. B., Skowronski M. E., Olech L., Oslizlo K., 
Hybrid Ant Colony Optimization in solving Multi-Skill Resource-Constrained Project Scheduling Problem, 
Soft Computing, DOI: DOI 10.1007/s00500-014-1455-x 
========================================================== 
General characteristics: 
Tasks: 200
Resources: 10
Precedence relations: 64
Number of skill types: 5
========================================================== 
ResourceID 	 Salary 	 Skills 
1	 	 	69.5	 	 Q4: 0 	  Q3: 2 	  Q2: 2 	 
2	 	 	73.2	 	 Q4: 1 	  Q0: 1 	  Q1: 1 	  Q3: 1 	 
3	 	 	30.5	 	 Q3: 3 	  Q2: 2 	  Q1: 1 	  Q0: 2 	 
4	 	 	44.7	 	 Q2: 0 	 
5	 	 	60.8	 	 Q3: 0 	 
6	 	 	52.1	 	 Q2: 3 	 
7	 	 	70.4	 	 Q3: 0 	 
8	 	 	15.8	 	 Q0: 1 	  Q2: 2 	 
9	 	 	16.2	 	 Q2: 2 	  Q1: 1 	 
10	 	 	57.7	 	 Q0: 0 	  Q2: 2 	 
========================================================== 
TaskID 	 Duration 	 Skill 	 Predecessor IDs 
1	14	Q0:	1
2	25	Q3:	0
3	18	Q3:	1
4	37	Q1:	1
5	34	Q0:	0
6	26	Q3:	0
7	40	Q4:	0
8	25	Q3:	2
9	25	Q2:	3
10	15	Q4:	1
11	11	Q0:	0
12	26	Q3:	0
13	32	Q3:	2
14	31	Q0:	1
15	35	Q2:	3
16	24	Q4:	1
17	21	Q0:	1
18	9	Q3:	1
19	23	Q3:	1
20	29	Q0:	0	11
21	38	Q3:	0
22	22	Q1:	1
23	30	Q1:	1
24	34	Q3:	3
25	16	Q2:	0
26	31	Q3:	3
27	35	Q3:	0
28	34	Q0:	1
29	28	Q1:	1
30	24	Q2:	0
31	33	Q2:	2
32	36	Q3:	3
33	28	Q4:	1
34	40	Q3:	0
35	21	Q1:	1
36	33	Q3:	2
37	27	Q0:	0
38	38	Q4:	1
39	16	Q1:	1
40	13	Q2:	0
41	39	Q2:	0	11
42	15	Q0:	0
43	20	Q0:	2	8
44	23	Q0:	2	25
45	16	Q4:	0
46	32	Q3:	0	38
47	22	Q3:	2
48	30	Q1:	1
49	21	Q2:	3
50	27	Q0:	1
51	17	Q0:	2
52	27	Q2:	0
53	16	Q2:	2
54	30	Q0:	1	40
55	31	Q0:	0	49
56	20	Q1:	1
57	16	Q2:	3
58	15	Q1:	1
59	19	Q0:	0
60	24	Q4:	1
61	24	Q4:	1	35
62	39	Q2:	0
63	40	Q4:	0
64	22	Q1:	1
65	22	Q3:	0
66	12	Q2:	3
67	27	Q0:	1
68	30	Q4:	1
69	23	Q0:	1
70	19	Q2:	2
71	26	Q3:	2
72	29	Q0:	2
73	10	Q1:	1
74	22	Q3:	0
75	37	Q0:	2	48
76	19	Q0:	0
77	17	Q1:	1
78	13	Q0:	1
79	20	Q0:	2
80	11	Q2:	2
81	18	Q0:	2
82	21	Q1:	1
83	15	Q1:	1
84	22	Q3:	3
85	13	Q0:	0
86	21	Q0:	1
87	33	Q3:	1
88	34	Q4:	1
89	36	Q2:	3
90	21	Q1:	1
91	11	Q3:	2
92	32	Q3:	3	28	84
93	14	Q0:	1
94	9	Q0:	2
95	11	Q2:	3	78
96	36	Q3:	0
97	16	Q1:	1
98	23	Q0:	2
99	20	Q3:	0
100	23	Q3:	3	41
101	19	Q0:	1	96
102	25	Q3:	3
103	37	Q2:	2	92
104	9	Q2:	0	70
105	39	Q4:	1
106	30	Q0:	0
107	20	Q2:	0
108	20	Q0:	0	69
109	11	Q3:	1
110	17	Q4:	0	49
111	31	Q4:	0
112	16	Q4:	0
113	18	Q3:	0	77
114	39	Q4:	1
115	15	Q2:	3
116	32	Q4:	1
117	25	Q0:	1
118	25	Q3:	0	93
119	23	Q1:	1
120	26	Q2:	3	63	104
121	13	Q0:	2
122	10	Q4:	0
123	40	Q2:	0
124	28	Q3:	2	66	58
125	21	Q2:	2
126	9	Q3:	0
127	33	Q3:	2
128	28	Q3:	0	10
129	11	Q4:	1	62
130	13	Q0:	1
131	26	Q3:	0
132	30	Q2:	3
133	25	Q3:	1
134	25	Q3:	3
135	22	Q3:	2	11
136	35	Q3:	0
137	34	Q3:	1
138	19	Q0:	0
139	39	Q0:	2
140	18	Q2:	2	35
141	36	Q4:	1
142	28	Q1:	1	119
143	11	Q2:	0	75
144	15	Q0:	1	121
145	22	Q4:	1
146	24	Q2:	3
147	11	Q3:	3	72
148	27	Q2:	3
149	28	Q0:	2	44
150	33	Q1:	1
151	11	Q3:	2
152	17	Q4:	0
153	23	Q4:	0
154	21	Q3:	0	22
155	21	Q0:	0	56	20
156	28	Q0:	0
157	27	Q2:	3
158	24	Q0:	2
159	22	Q4:	0	61
160	23	Q4:	1
161	19	Q2:	3
162	32	Q3:	2	127	62
163	25	Q0:	2
164	23	Q0:	2
165	26	Q1:	1	57
166	40	Q3:	2
167	31	Q3:	3	87
168	37	Q0:	1
169	28	Q2:	0	5
170	29	Q3:	3
171	25	Q4:	1
172	32	Q4:	0
173	17	Q0:	1	85
174	25	Q0:	1	142
175	36	Q2:	3	114
176	33	Q3:	2
177	35	Q3:	2	35
178	39	Q3:	0
179	31	Q4:	0	31
180	12	Q4:	0	123	14
181	29	Q2:	0
182	38	Q2:	2
183	38	Q3:	2
184	22	Q3:	2	42	89
185	40	Q2:	2	134	157	48
186	31	Q3:	0
187	21	Q0:	2	170
188	9	Q0:	0
189	31	Q0:	0
190	15	Q2:	2	110	94
191	17	Q3:	0	60	171
192	33	Q0:	1
193	17	Q2:	0
194	26	Q2:	2
195	17	Q3:	3	181
196	22	Q1:	1
197	37	Q0:	0	105
198	32	Q3:	3	161	133
199	35	Q2:	0	22
200	10	Q3:	1
========================================================== 